p cnf 245 1958
1 2 3 4 5 6 7 0
8 9 10 11 12 13 14 0
15 16 17 18 19 20 21 0
22 23 24 25 26 27 28 0
29 30 31 32 33 34 35 0
36 37 38 39 40 41 42 0
43 44 45 46 47 48 49 0
50 51 52 53 54 55 56 0
57 58 59 60 61 62 63 0
64 65 66 67 68 69 70 0
71 72 73 74 75 76 77 0
78 79 80 81 82 83 84 0
85 86 87 88 89 90 91 0
92 93 94 95 96 97 98 0
99 100 101 102 103 104 105 0
106 107 108 109 110 111 112 0
113 114 115 116 117 118 119 0
120 121 122 123 124 125 126 0
127 128 129 130 131 132 133 0
134 135 136 137 138 139 140 0
141 142 143 144 145 146 147 0
148 149 150 151 152 153 154 0
155 156 157 158 159 160 161 0
162 163 164 165 166 167 168 0
169 170 171 172 173 174 175 0
176 177 178 179 180 181 182 0
183 184 185 186 187 188 189 0
190 191 192 193 194 195 196 0
197 198 199 200 201 202 203 0
204 205 206 207 208 209 210 0
211 212 213 214 215 216 217 0
218 219 220 221 222 223 224 0
225 226 227 228 229 230 231 0
232 233 234 235 236 237 238 0
239 240 241 242 243 244 245 0
-1 -2 0
-1 -3 0
-1 -4 0
-1 -5 0
-1 -6 0
-1 -7 0
-2 -3 0
-2 -4 0
-2 -5 0
-2 -6 0
-2 -7 0
-3 -4 0
-3 -5 0
-3 -6 0
-3 -7 0
-4 -5 0
-4 -6 0
-4 -7 0
-5 -6 0
-5 -7 0
-6 -7 0
-8 -9 0
-8 -10 0
-8 -11 0
-8 -12 0
-8 -13 0
-8 -14 0
-9 -10 0
-9 -11 0
-9 -12 0
-9 -13 0
-9 -14 0
-10 -11 0
-10 -12 0
-10 -13 0
-10 -14 0
-11 -12 0
-11 -13 0
-11 -14 0
-12 -13 0
-12 -14 0
-13 -14 0
-15 -16 0
-15 -17 0
-15 -18 0
-15 -19 0
-15 -20 0
-15 -21 0
-16 -17 0
-16 -18 0
-16 -19 0
-16 -20 0
-16 -21 0
-17 -18 0
-17 -19 0
-17 -20 0
-17 -21 0
-18 -19 0
-18 -20 0
-18 -21 0
-19 -20 0
-19 -21 0
-20 -21 0
-22 -23 0
-22 -24 0
-22 -25 0
-22 -26 0
-22 -27 0
-22 -28 0
-23 -24 0
-23 -25 0
-23 -26 0
-23 -27 0
-23 -28 0
-24 -25 0
-24 -26 0
-24 -27 0
-24 -28 0
-25 -26 0
-25 -27 0
-25 -28 0
-26 -27 0
-26 -28 0
-27 -28 0
-29 -30 0
-29 -31 0
-29 -32 0
-29 -33 0
-29 -34 0
-29 -35 0
-30 -31 0
-30 -32 0
-30 -33 0
-30 -34 0
-30 -35 0
-31 -32 0
-31 -33 0
-31 -34 0
-31 -35 0
-32 -33 0
-32 -34 0
-32 -35 0
-33 -34 0
-33 -35 0
-34 -35 0
-36 -37 0
-36 -38 0
-36 -39 0
-36 -40 0
-36 -41 0
-36 -42 0
-37 -38 0
-37 -39 0
-37 -40 0
-37 -41 0
-37 -42 0
-38 -39 0
-38 -40 0
-38 -41 0
-38 -42 0
-39 -40 0
-39 -41 0
-39 -42 0
-40 -41 0
-40 -42 0
-41 -42 0
-43 -44 0
-43 -45 0
-43 -46 0
-43 -47 0
-43 -48 0
-43 -49 0
-44 -45 0
-44 -46 0
-44 -47 0
-44 -48 0
-44 -49 0
-45 -46 0
-45 -47 0
-45 -48 0
-45 -49 0
-46 -47 0
-46 -48 0
-46 -49 0
-47 -48 0
-47 -49 0
-48 -49 0
-50 -51 0
-50 -52 0
-50 -53 0
-50 -54 0
-50 -55 0
-50 -56 0
-51 -52 0
-51 -53 0
-51 -54 0
-51 -55 0
-51 -56 0
-52 -53 0
-52 -54 0
-52 -55 0
-52 -56 0
-53 -54 0
-53 -55 0
-53 -56 0
-54 -55 0
-54 -56 0
-55 -56 0
-57 -58 0
-57 -59 0
-57 -60 0
-57 -61 0
-57 -62 0
-57 -63 0
-58 -59 0
-58 -60 0
-58 -61 0
-58 -62 0
-58 -63 0
-59 -60 0
-59 -61 0
-59 -62 0
-59 -63 0
-60 -61 0
-60 -62 0
-60 -63 0
-61 -62 0
-61 -63 0
-62 -63 0
-64 -65 0
-64 -66 0
-64 -67 0
-64 -68 0
-64 -69 0
-64 -70 0
-65 -66 0
-65 -67 0
-65 -68 0
-65 -69 0
-65 -70 0
-66 -67 0
-66 -68 0
-66 -69 0
-66 -70 0
-67 -68 0
-67 -69 0
-67 -70 0
-68 -69 0
-68 -70 0
-69 -70 0
-71 -72 0
-71 -73 0
-71 -74 0
-71 -75 0
-71 -76 0
-71 -77 0
-72 -73 0
-72 -74 0
-72 -75 0
-72 -76 0
-72 -77 0
-73 -74 0
-73 -75 0
-73 -76 0
-73 -77 0
-74 -75 0
-74 -76 0
-74 -77 0
-75 -76 0
-75 -77 0
-76 -77 0
-78 -79 0
-78 -80 0
-78 -81 0
-78 -82 0
-78 -83 0
-78 -84 0
-79 -80 0
-79 -81 0
-79 -82 0
-79 -83 0
-79 -84 0
-80 -81 0
-80 -82 0
-80 -83 0
-80 -84 0
-81 -82 0
-81 -83 0
-81 -84 0
-82 -83 0
-82 -84 0
-83 -84 0
-85 -86 0
-85 -87 0
-85 -88 0
-85 -89 0
-85 -90 0
-85 -91 0
-86 -87 0
-86 -88 0
-86 -89 0
-86 -90 0
-86 -91 0
-87 -88 0
-87 -89 0
-87 -90 0
-87 -91 0
-88 -89 0
-88 -90 0
-88 -91 0
-89 -90 0
-89 -91 0
-90 -91 0
-92 -93 0
-92 -94 0
-92 -95 0
-92 -96 0
-92 -97 0
-92 -98 0
-93 -94 0
-93 -95 0
-93 -96 0
-93 -97 0
-93 -98 0
-94 -95 0
-94 -96 0
-94 -97 0
-94 -98 0
-95 -96 0
-95 -97 0
-95 -98 0
-96 -97 0
-96 -98 0
-97 -98 0
-99 -100 0
-99 -101 0
-99 -102 0
-99 -103 0
-99 -104 0
-99 -105 0
-100 -101 0
-100 -102 0
-100 -103 0
-100 -104 0
-100 -105 0
-101 -102 0
-101 -103 0
-101 -104 0
-101 -105 0
-102 -103 0
-102 -104 0
-102 -105 0
-103 -104 0
-103 -105 0
-104 -105 0
-106 -107 0
-106 -108 0
-106 -109 0
-106 -110 0
-106 -111 0
-106 -112 0
-107 -108 0
-107 -109 0
-107 -110 0
-107 -111 0
-107 -112 0
-108 -109 0
-108 -110 0
-108 -111 0
-108 -112 0
-109 -110 0
-109 -111 0
-109 -112 0
-110 -111 0
-110 -112 0
-111 -112 0
-113 -114 0
-113 -115 0
-113 -116 0
-113 -117 0
-113 -118 0
-113 -119 0
-114 -115 0
-114 -116 0
-114 -117 0
-114 -118 0
-114 -119 0
-115 -116 0
-115 -117 0
-115 -118 0
-115 -119 0
-116 -117 0
-116 -118 0
-116 -119 0
-117 -118 0
-117 -119 0
-118 -119 0
-120 -121 0
-120 -122 0
-120 -123 0
-120 -124 0
-120 -125 0
-120 -126 0
-121 -122 0
-121 -123 0
-121 -124 0
-121 -125 0
-121 -126 0
-122 -123 0
-122 -124 0
-122 -125 0
-122 -126 0
-123 -124 0
-123 -125 0
-123 -126 0
-124 -125 0
-124 -126 0
-125 -126 0
-127 -128 0
-127 -129 0
-127 -130 0
-127 -131 0
-127 -132 0
-127 -133 0
-128 -129 0
-128 -130 0
-128 -131 0
-128 -132 0
-128 -133 0
-129 -130 0
-129 -131 0
-129 -132 0
-129 -133 0
-130 -131 0
-130 -132 0
-130 -133 0
-131 -132 0
-131 -133 0
-132 -133 0
-134 -135 0
-134 -136 0
-134 -137 0
-134 -138 0
-134 -139 0
-134 -140 0
-135 -136 0
-135 -137 0
-135 -138 0
-135 -139 0
-135 -140 0
-136 -137 0
-136 -138 0
-136 -139 0
-136 -140 0
-137 -138 0
-137 -139 0
-137 -140 0
-138 -139 0
-138 -140 0
-139 -140 0
-141 -142 0
-141 -143 0
-141 -144 0
-141 -145 0
-141 -146 0
-141 -147 0
-142 -143 0
-142 -144 0
-142 -145 0
-142 -146 0
-142 -147 0
-143 -144 0
-143 -145 0
-143 -146 0
-143 -147 0
-144 -145 0
-144 -146 0
-144 -147 0
-145 -146 0
-145 -147 0
-146 -147 0
-148 -149 0
-148 -150 0
-148 -151 0
-148 -152 0
-148 -153 0
-148 -154 0
-149 -150 0
-149 -151 0
-149 -152 0
-149 -153 0
-149 -154 0
-150 -151 0
-150 -152 0
-150 -153 0
-150 -154 0
-151 -152 0
-151 -153 0
-151 -154 0
-152 -153 0
-152 -154 0
-153 -154 0
-155 -156 0
-155 -157 0
-155 -158 0
-155 -159 0
-155 -160 0
-155 -161 0
-156 -157 0
-156 -158 0
-156 -159 0
-156 -160 0
-156 -161 0
-157 -158 0
-157 -159 0
-157 -160 0
-157 -161 0
-158 -159 0
-158 -160 0
-158 -161 0
-159 -160 0
-159 -161 0
-160 -161 0
-162 -163 0
-162 -164 0
-162 -165 0
-162 -166 0
-162 -167 0
-162 -168 0
-163 -164 0
-163 -165 0
-163 -166 0
-163 -167 0
-163 -168 0
-164 -165 0
-164 -166 0
-164 -167 0
-164 -168 0
-165 -166 0
-165 -167 0
-165 -168 0
-166 -167 0
-166 -168 0
-167 -168 0
-169 -170 0
-169 -171 0
-169 -172 0
-169 -173 0
-169 -174 0
-169 -175 0
-170 -171 0
-170 -172 0
-170 -173 0
-170 -174 0
-170 -175 0
-171 -172 0
-171 -173 0
-171 -174 0
-171 -175 0
-172 -173 0
-172 -174 0
-172 -175 0
-173 -174 0
-173 -175 0
-174 -175 0
-176 -177 0
-176 -178 0
-176 -179 0
-176 -180 0
-176 -181 0
-176 -182 0
-177 -178 0
-177 -179 0
-177 -180 0
-177 -181 0
-177 -182 0
-178 -179 0
-178 -180 0
-178 -181 0
-178 -182 0
-179 -180 0
-179 -181 0
-179 -182 0
-180 -181 0
-180 -182 0
-181 -182 0
-183 -184 0
-183 -185 0
-183 -186 0
-183 -187 0
-183 -188 0
-183 -189 0
-184 -185 0
-184 -186 0
-184 -187 0
-184 -188 0
-184 -189 0
-185 -186 0
-185 -187 0
-185 -188 0
-185 -189 0
-186 -187 0
-186 -188 0
-186 -189 0
-187 -188 0
-187 -189 0
-188 -189 0
-190 -191 0
-190 -192 0
-190 -193 0
-190 -194 0
-190 -195 0
-190 -196 0
-191 -192 0
-191 -193 0
-191 -194 0
-191 -195 0
-191 -196 0
-192 -193 0
-192 -194 0
-192 -195 0
-192 -196 0
-193 -194 0
-193 -195 0
-193 -196 0
-194 -195 0
-194 -196 0
-195 -196 0
-197 -198 0
-197 -199 0
-197 -200 0
-197 -201 0
-197 -202 0
-197 -203 0
-198 -199 0
-198 -200 0
-198 -201 0
-198 -202 0
-198 -203 0
-199 -200 0
-199 -201 0
-199 -202 0
-199 -203 0
-200 -201 0
-200 -202 0
-200 -203 0
-201 -202 0
-201 -203 0
-202 -203 0
-204 -205 0
-204 -206 0
-204 -207 0
-204 -208 0
-204 -209 0
-204 -210 0
-205 -206 0
-205 -207 0
-205 -208 0
-205 -209 0
-205 -210 0
-206 -207 0
-206 -208 0
-206 -209 0
-206 -210 0
-207 -208 0
-207 -209 0
-207 -210 0
-208 -209 0
-208 -210 0
-209 -210 0
-211 -212 0
-211 -213 0
-211 -214 0
-211 -215 0
-211 -216 0
-211 -217 0
-212 -213 0
-212 -214 0
-212 -215 0
-212 -216 0
-212 -217 0
-213 -214 0
-213 -215 0
-213 -216 0
-213 -217 0
-214 -215 0
-214 -216 0
-214 -217 0
-215 -216 0
-215 -217 0
-216 -217 0
-218 -219 0
-218 -220 0
-218 -221 0
-218 -222 0
-218 -223 0
-218 -224 0
-219 -220 0
-219 -221 0
-219 -222 0
-219 -223 0
-219 -224 0
-220 -221 0
-220 -222 0
-220 -223 0
-220 -224 0
-221 -222 0
-221 -223 0
-221 -224 0
-222 -223 0
-222 -224 0
-223 -224 0
-225 -226 0
-225 -227 0
-225 -228 0
-225 -229 0
-225 -230 0
-225 -231 0
-226 -227 0
-226 -228 0
-226 -229 0
-226 -230 0
-226 -231 0
-227 -228 0
-227 -229 0
-227 -230 0
-227 -231 0
-228 -229 0
-228 -230 0
-228 -231 0
-229 -230 0
-229 -231 0
-230 -231 0
-232 -233 0
-232 -234 0
-232 -235 0
-232 -236 0
-232 -237 0
-232 -238 0
-233 -234 0
-233 -235 0
-233 -236 0
-233 -237 0
-233 -238 0
-234 -235 0
-234 -236 0
-234 -237 0
-234 -238 0
-235 -236 0
-235 -237 0
-235 -238 0
-236 -237 0
-236 -238 0
-237 -238 0
-239 -240 0
-239 -241 0
-239 -242 0
-239 -243 0
-239 -244 0
-239 -245 0
-240 -241 0
-240 -242 0
-240 -243 0
-240 -244 0
-240 -245 0
-241 -242 0
-241 -243 0
-241 -244 0
-241 -245 0
-242 -243 0
-242 -244 0
-242 -245 0
-243 -244 0
-243 -245 0
-244 -245 0
-6 -23 0
-4 -27 0
-2 -25 0
-5 -26 0
-4 -42 0
-6 -41 0
-5 -42 0
-1 -38 0
-7 -51 0
-1 -54 0
-1 -52 0
-3 -50 0
-3 -72 0
-7 -76 0
-2 -71 0
-1 -72 0
-2 -83 0
-7 -84 0
-4 -80 0
-5 -79 0
-5 -105 0
-4 -105 0
-3 -104 0
-1 -100 0
-1 -117 0
-4 -118 0
-6 -115 0
-7 -119 0
-1 -161 0
-6 -158 0
-4 -161 0
-4 -156 0
-1 -165 0
-5 -166 0
-5 -164 0
-3 -162 0
-6 -184 0
-5 -185 0
-1 -187 0
-3 -188 0
-6 -195 0
-1 -190 0
-1 -191 0
-7 -190 0
-7 -220 0
-1 -218 0
-3 -222 0
-6 -218 0
-5 -232 0
-1 -235 0
-6 -232 0
-3 -238 0
-8 -15 0
-10 -18 0
-12 -18 0
-12 -21 0
-11 -45 0
-14 -48 0
-11 -48 0
-14 -45 0
-10 -76 0
-9 -77 0
-8 -75 0
-8 -71 0
-14 -90 0
-11 -88 0
-12 -88 0
-9 -91 0
-10 -98 0
-14 -94 0
-10 -92 0
-10 -94 0
-8 -100 0
-13 -99 0
-10 -105 0
-13 -104 0
-12 -107 0
-11 -108 0
-11 -112 0
-11 -106 0
-13 -118 0
-9 -118 0
-11 -116 0
-10 -114 0
-13 -124 0
-12 -125 0
-8 -120 0
-8 -124 0
-9 -131 0
-8 -130 0
-14 -129 0
-10 -127 0
-14 -135 0
-11 -140 0
-8 -136 0
-14 -140 0
-11 -143 0
-10 -142 0
-11 -144 0
-11 -142 0
-8 -166 0
-8 -162 0
-10 -163 0
-11 -167 0
-10 -170 0
-11 -175 0
-13 -170 0
-14 -174 0
-8 -189 0
-12 -188 0
-11 -184 0
-10 -185 0
-11 -206 0
-9 -207 0
-8 -206 0
-12 -208 0
-12 -218 0
-8 -222 0
-12 -224 0
-9 -223 0
-11 -243 0
-9 -239 0
-10 -240 0
-8 -244 0
-16 -37 0
-20 -39 0
-19 -41 0
-20 -37 0
-16 -59 0
-21 -59 0
-17 -59 0
-17 -62 0
-20 -65 0
-21 -67 0
-21 -69 0
-15 -65 0
-21 -81 0
-16 -82 0
-20 -82 0
-15 -79 0
-17 -115 0
-19 -113 0
-15 -116 0
-19 -118 0
-19 -160 0
-17 -158 0
-18 -155 0
-15 -156 0
-21 -166 0
-20 -164 0
-17 -164 0
-21 -165 0
-21 -177 0
-16 -178 0
-20 -178 0
-16 -181 0
-21 -192 0
-19 -190 0
-21 -193 0
-16 -193 0
-17 -198 0
-15 -202 0
-17 -201 0
-20 -198 0
-20 -210 0
-15 -206 0
-16 -210 0
-15 -207 0
-19 -211 0
-18 -216 0
-19 -212 0
-21 -215 0
-19 -226 0
-19 -228 0
-15 -229 0
-17 -229 0
-16 -236 0
-17 -238 0
-20 -232 0
-21 -237 0
-25 -31 0
-22 -33 0
-28 -30 0
-22 -32 0
-25 -55 0
-22 -53 0
-23 -52 0
-25 -51 0
-24 -57 0
-24 -60 0
-26 -59 0
-27 -59 0
-26 -73 0
-24 -75 0
-28 -77 0
-24 -71 0
-28 -82 0
-24 -84 0
-27 -80 0
-27 -81 0
-28 -85 0
-27 -91 0
-24 -88 0
-23 -90 0
-27 -104 0
-23 -101 0
-24 -104 0
-23 -102 0
-27 -114 0
-24 -114 0
-22 -119 0
-27 -117 0
-26 -122 0
-27 -120 0
-25 -121 0
-24 -122 0
-26 -130 0
-26 -131 0
-28 -133 0
-27 -132 0
-23 -140 0
-27 -134 0
-25 -136 0
-26 -136 0
-26 -141 0
-26 -142 0
-23 -143 0
-28 -144 0
-26 -151 0
-23 -150 0
-28 -154 0
-28 -151 0
-23 -168 0
-28 -163 0
-27 -166 0
-23 -163 0
-23 -187 0
-25 -186 0
-27 -188 0
-27 -184 0
-24 -206 0
-27 -208 0
-25 -208 0
-28 -207 0
-23 -228 0
-27 -230 0
-23 -227 0
-26 -229 0
-25 -236 0
-27 -233 0
-28 -234 0
-28 -238 0
-25 -241 0
-23 -239 0
-24 -240 0
-22 -239 0
-30 -49 0
-34 -48 0
-32 -48 0
-29 -44 0
-33 -61 0
-31 -59 0
-29 -57 0
-32 -60 0
-33 -68 0
-32 -68 0
-35 -65 0
-34 -67 0
-29 -124 0
-31 -120 0
-34 -122 0
-31 -121 0
-30 -139 0
-35 -140 0
-35 -134 0
-32 -136 0
-29 -150 0
-30 -154 0
-30 -151 0
-35 -150 0
-34 -158 0
-31 -155 0
-31 -161 0
-29 -161 0
-31 -166 0
-30 -163 0
-31 -162 0
-33 -165 0
-29 -188 0
-32 -185 0
-34 -187 0
-30 -183 0
-35 -203 0
-34 -202 0
-34 -197 0
-31 -202 0
-30 -207 0
-31 -204 0
-32 -209 0
-34 -210 0
-33 -215 0
-29 -214 0
-30 -211 0
-31 -212 0
-29 -238 0
-31 -232 0
-30 -238 0
-31 -236 0
-35 -244 0
-29 -241 0
-33 -244 0
-32 -239 0
-36 -44 0
-36 -46 0
-40 -43 0
-42 -45 0
-38 -56 0
-41 -54 0
-39 -54 0
-41 -52 0
-40 -62 0
-37 -57 0
-36 -57 0
-39 -62 0
-41 -79 0
-38 -81 0
-37 -80 0
-42 -81 0
-42 -91 0
-39 -88 0
-36 -90 0
-41 -88 0
-40 -108 0
-42 -106 0
-41 -109 0
-40 -111 0
-40 -156 0
-37 -157 0
-39 -161 0
-39 -156 0
-37 -178 0
-38 -181 0
-40 -180 0
-36 -179 0
-40 -189 0
-37 -186 0
-36 -189 0
-40 -186 0
-40 -193 0
-41 -194 0
-37 -190 0
-36 -192 0
-40 -222 0
-37 -218 0
-36 -219 0
-40 -220 0
-37 -245 0
-39 -242 0
-40 -243 0
-36 -241 0
-47 -57 0
-43 -58 0
-47 -60 0
-49 -62 0
-47 -77 0
-45 -76 0
-45 -77 0
-44 -77 0
-46 -93 0
-47 -97 0
-48 -98 0
-44 -95 0
-49 -113 0
-45 -116 0
-47 -119 0
-46 -118 0
-44 -125 0
-45 -121 0
-44 -120 0
-47 -122 0
-46 -130 0
-46 -131 0
-43 -131 0
-49 -131 0
-44 -152 0
-47 -151 0
-43 -149 0
-43 -152 0
-43 -158 0
-44 -161 0
-47 -155 0
-49 -158 0
-48 -182 0
-48 -178 0
-43 -181 0
-43 -177 0
-46 -188 0
-47 -187 0
-49 -189 0
-45 -187 0
-46 -192 0
-49 -195 0
-47 -192 0
-44 -191 0
-46 -203 0
-46 -197 0
-47 -199 0
-44 -201 0
-47 -213 0
-44 -216 0
-44 -212 0
-44 -215 0
-49 -230 0
-47 -227 0
-48 -230 0
-48 -225 0
-43 -235 0
-47 -232 0
-48 -238 0
-44 -233 0
-56 -60 0
-53 -62 0
-50 -61 0
-53 -61 0
-50 -71 0
-54 -71 0
-56 -71 0
-55 -75 0
-50 -80 0
-52 -78 0
-54 -81 0
-51 -84 0
-52 -108 0
-51 -106 0
-55 -106 0
-52 -107 0
-50 -129 0
-56 -132 0
-56 -127 0
-56 -133 0
-52 -138 0
-53 -140 0
-54 -136 0
-52 -136 0
-53 -147 0
-55 -146 0
-56 -144 0
-53 -144 0
-52 -168 0
-55 -163 0
-50 -167 0
-50 -168 0
-53 -191 0
-52 -194 0
-54 -193 0
-53 -190 0
-50 -202 0
-56 -201 0
-50 -197 0
-50 -203 0
-55 -208 0
-51 -205 0
-55 -207 0
-54 -207 0
-54 -214 0
-51 -212 0
-50 -211 0
-55 -214 0
-54 -229 0
-55 -229 0
-51 -228 0
-52 -227 0
-56 -237 0
-51 -232 0
-51 -235 0
-54 -238 0
-57 -69 0
-58 -66 0
-63 -66 0
-61 -67 0
-63 -88 0
-57 -90 0
-61 -86 0
-60 -90 0
-63 -105 0
-59 -100 0
-61 -102 0
-62 -102 0
-62 -123 0
-60 -125 0
-62 -120 0
-57 -120 0
-60 -147 0
-59 -143 0
-62 -143 0
-60 -146 0
-59 -154 0
-59 -152 0
-62 -148 0
-58 -152 0
-58 -163 0
-60 -168 0
-62 -165 0
-59 -165 0
-60 -174 0
-63 -169 0
-61 -173 0
-63 -173 0
-57 -194 0
-60 -191 0
-61 -193 0
-58 -190 0
-61 -204 0
-59 -204 0
-62 -210 0
-63 -205 0
-57 -213 0
-60 -211 0
-62 -214 0
-61 -216 0
-59 -222 0
-62 -220 0
-62 -222 0
-60 -223 0
-60 -226 0
-62 -231 0
-59 -228 0
-62 -228 0
-57 -245 0
-58 -245 0
-57 -241 0
-59 -239 0
-68 -79 0
-68 -82 0
-70 -78 0
-68 -83 0
-69 -97 0
-64 -95 0
-66 -98 0
-68 -94 0
-67 -111 0
-70 -106 0
-70 -107 0
-64 -108 0
-67 -124 0
-64 -120 0
-68 -120 0
-70 -123 0
-69 -137 0
-66 -139 0
-70 -137 0
-65 -140 0
-65 -142 0
-68 -147 0
-69 -143 0
-67 -141 0
-69 -166 0
-65 -163 0
-68 -163 0
-67 -168 0
-65 -195 0
-65 -193 0
-65 -194 0
-68 -194 0
-69 -205 0
-68 -210 0
-68 -205 0
-64 -205 0
-69 -216 0
-66 -216 0
-66 -217 0
-70 -212 0
-67 -220 0
-66 -220 0
-69 -222 0
-68 -224 0
-68 -227 0
-66 -226 0
-64 -225 0
-65 -227 0
-68 -244 0
-64 -244 0
-70 -241 0
-67 -245 0
-76 -89 0
-71 -86 0
-73 -89 0
-77 -86 0
-73 -104 0
-72 -105 0
-71 -102 0
-71 -103 0
-77 -108 0
-73 -106 0
-71 -106 0
-72 -110 0
-76 -128 0
-75 -131 0
-72 -130 0
-77 -129 0
-76 -152 0
-72 -153 0
-73 -149 0
-76 -154 0
-75 -157 0
-76 -155 0
-71 -159 0
-77 -161 0
-72 -162 0
-71 -166 0
-74 -167 0
-71 -168 0
-73 -174 0
-71 -173 0
-77 -172 0
-74 -171 0
-72 -189 0
-77 -185 0
-71 -184 0
-74 -185 0
-75 -192 0
-74 -190 0
-71 -192 0
-76 -195 0
-72 -224 0
-74 -220 0
-76 -218 0
-72 -221 0
-74 -231 0
-72 -231 0
-72 -225 0
-71 -226 0
-79 -94 0
-80 -93 0
-83 -95 0
-82 -97 0
-84 -101 0
-80 -99 0
-84 -99 0
-81 -102 0
-78 -161 0
-80 -160 0
-84 -161 0
-81 -161 0
-83 -175 0
-84 -170 0
-82 -172 0
-84 -172 0
-80 -201 0
-81 -197 0
-81 -199 0
-83 -199 0
-83 -206 0
-79 -209 0
-84 -206 0
-78 -207 0
-79 -217 0
-78 -217 0
-84 -215 0
-80 -212 0
-82 -229 0
-78 -227 0
-84 -231 0
-82 -225 0
-88 -105 0
-87 -101 0
-85 -104 0
-88 -101 0
-91 -106 0
-90 -109 0
-86 -108 0
-87 -111 0
-91 -131 0
-91 -133 0
-85 -131 0
-88 -128 0
-88 -136 0
-89 -135 0
-86 -135 0
-89 -137 0
-86 -160 0
-86 -161 0
-90 -158 0
-89 -160 0
-89 -181 0
-91 -181 0
-89 -176 0
-87 -180 0
-91 -186 0
-86 -183 0
-89 -184 0
-88 -184 0
-86 -192 0
-88 -192 0
-87 -196 0
-87 -191 0
-87 -214 0
-91 -216 0
-87 -216 0
-91 -214 0
-88 -225 0
-85 -225 0
-88 -227 0
-87 -231 0
-86 -244 0
-88 -240 0
-90 -240 0
-89 -245 0
-92 -173 0
-95 -172 0
-93 -169 0
-92 -172 0
-92 -189 0
-96 -185 0
-94 -186 0
-96 -183 0
-96 -196 0
-98 -195 0
-94 -191 0
-97 -192 0
-95 -201 0
-94 -200 0
-98 -199 0
-96 -198 0
-92 -230 0
-98 -227 0
-97 -227 0
-96 -225 0
-93 -237 0
-96 -236 0
-98 -234 0
-96 -235 0
-98 -241 0
-95 -239 0
-94 -239 0
-95 -240 0
-100 -131 0
-99 -131 0
-100 -127 0
-101 -129 0
-103 -135 0
-105 -134 0
-104 -137 0
-99 -137 0
-102 -142 0
-99 -143 0
-100 -145 0
-104 -146 0
-99 -154 0
-99 -153 0
-102 -149 0
-100 -148 0
-105 -155 0
-102 -161 0
-104 -159 0
-102 -156 0
-103 -163 0
-101 -167 0
-104 -162 0
-104 -167 0
-104 -172 0
-105 -174 0
-101 -172 0
-103 -174 0
-102 -180 0
-102 -179 0
-101 -177 0
-100 -181 0
-102 -195 0
-105 -194 0
-101 -192 0
-99 -193 0
-105 -205 0
-105 -204 0
-99 -206 0
-103 -204 0
-104 -212 0
-104 -215 0
-102 -213 0
-100 -216 0
-102 -219 0
-101 -222 0
-104 -219 0
-103 -220 0
-102 -227 0
-100 -226 0
-99 -228 0
-99 -230 0
-99 -237 0
-100 -237 0
-103 -234 0
-100 -238 0
-106 -116 0
-106 -118 0
-107 -116 0
-107 -115 0
-110 -137 0
-111 -139 0
-107 -138 0
-110 -135 0
-110 -147 0
-111 -144 0
-106 -146 0
-108 -143 0
-109 -152 0
-110 -148 0
-111 -150 0
-107 -150 0
-107 -158 0
-110 -157 0
-109 -160 0
-111 -159 0
-107 -165 0
-111 -168 0
-108 -164 0
-111 -166 0
-108 -170 0
-110 -174 0
-110 -173 0
-112 -172 0
-108 -187 0
-110 -183 0
-110 -189 0
-106 -188 0
-111 -191 0
-108 -190 0
-109 -192 0
-108 -195 0
-109 -203 0
-109 -199 0
-110 -200 0
-110 -201 0
-109 -210 0
-112 -208 0
-111 -209 0
-110 -206 0
-108 -217 0
-112 -213 0
-106 -215 0
-110 -211 0
-112 -224 0
-110 -218 0
-112 -222 0
-108 -223 0
-110 -234 0
-106 -232 0
-112 -234 0
-107 -237 0
-109 -242 0
-112 -241 0
-106 -239 0
-110 -242 0
-118 -123 0
-118 -125 0
-114 -126 0
-113 -121 0
-114 -137 0
-117 -136 0
-115 -139 0
-118 -140 0
-116 -145 0
-113 -144 0
-114 -142 0
-114 -143 0
-117 -173 0
-119 -171 0
-114 -175 0
-115 -171 0
-118 -177 0
-116 -176 0
-113 -179 0
-115 -182 0
-117 -189 0
-116 -189 0
-114 -187 0
-115 -183 0
-118 -190 0
-119 -196 0
-114 -191 0
-113 -194 0
-126 -135 0
-125 -137 0
-122 -139 0
-124 -139 0
-126 -163 0
-121 -167 0
-122 -164 0
-123 -165 0
-126 -174 0
-124 -175 0
-123 -173 0
-124 -172 0
-125 -179 0
-123 -181 0
-123 -182 0
-126 -177 0
-120 -194 0
-125 -194 0
-126 -191 0
-126 -196 0
-122 -203 0
-120 -197 0
-123 -202 0
-126 -203 0
-121 -229 0
-122 -226 0
-123 -228 0
-121 -228 0
-128 -139 0
-127 -137 0
-133 -137 0
-131 -137 0
-128 -143 0
-131 -147 0
-133 -146 0
-130 -141 0
-127 -157 0
-129 -161 0
-127 -161 0
-130 -161 0
-133 -164 0
-128 -168 0
-129 -164 0
-131 -168 0
-133 -172 0
-131 -170 0
-132 -172 0
-128 -172 0
-129 -196 0
-127 -190 0
-128 -191 0
-130 -195 0
-132 -206 0
-128 -207 0
-129 -206 0
-132 -208 0
-131 -228 0
-132 -225 0
-130 -228 0
-133 -230 0
-134 -150 0
-134 -148 0
-140 -151 0
-139 -153 0
-140 -159 0
-136 -161 0
-134 -158 0
-135 -160 0
-134 -171 0
-139 -172 0
-136 -172 0
-137 -169 0
-139 -185 0
-139 -184 0
-140 -186 0
-134 -189 0
-135 -192 0
-134 -191 0
-137 -190 0
-140 -195 0
-135 -210 0
-137 -208 0
-134 -210 0
-138 -210 0
-140 -211 0
-135 -213 0
-134 -213 0
-135 -216 0
-138 -218 0
-138 -222 0
-134 -224 0
-140 -218 0
-139 -231 0
-140 -230 0
-136 -225 0
-134 -226 0
-134 -232 0
-140 -238 0
-139 -234 0
-137 -234 0
-138 -244 0
-136 -241 0
-139 -240 0
-138 -239 0
-142 -166 0
-143 -162 0
-144 -162 0
-146 -168 0
-141 -182 0
-141 -177 0
-141 -181 0
-146 -177 0
-141 -190 0
-143 -195 0
-141 -194 0
-145 -193 0
-141 -197 0
-144 -200 0
-143 -199 0
-147 -197 0
-141 -204 0
-147 -210 0
-146 -208 0
-143 -208 0
-145 -217 0
-146 -217 0
-141 -216 0
-142 -217 0
-144 -222 0
-147 -222 0
-145 -222 0
-147 -219 0
-141 -237 0
-147 -233 0
-146 -238 0
-146 -236 0
-154 -155 0
-149 -160 0
-149 -161 0
-148 -156 0
-151 -195 0
-150 -192 0
-154 -195 0
-150 -196 0
-152 -229 0
-149 -231 0
-154 -230 0
-153 -227 0
-149 -233 0
-154 -237 0
-153 -232 0
-148 -234 0
-158 -195 0
-161 -192 0
-160 -195 0
-158 -193 0
-156 -215 0
-158 -213 0
-157 -211 0
-160 -214 0
-156 -228 0
-155 -231 0
-159 -230 0
-156 -226 0
-157 -236 0
-160 -237 0
-159 -233 0
-158 -236 0
-162 -194 0
-164 -196 0
-167 -193 0
-166 -192 0
-162 -200 0
-168 -199 0
-165 -201 0
-165 -200 0
-166 -212 0
-163 -211 0
-162 -216 0
-164 -217 0
-167 -228 0
-168 -228 0
-167 -229 0
-165 -226 0
-163 -238 0
-162 -237 0
-166 -238 0
-164 -234 0
-170 -183 0
-170 -185 0
-172 -187 0
-169 -183 0
-173 -201 0
-173 -203 0
-173 -197 0
-169 -201 0
-172 -215 0
-169 -217 0
-169 -214 0
-170 -212 0
-169 -245 0
-170 -240 0
-170 -239 0
-170 -244 0
-182 -186 0
-181 -187 0
-182 -189 0
-176 -188 0
-177 -234 0
-180 -234 0
-181 -234 0
-178 -232 0
-180 -244 0
-181 -242 0
-176 -245 0
-177 -243 0
-188 -194 0
-189 -191 0
-183 -194 0
-187 -192 0
-187 -198 0
-183 -201 0
-189 -200 0
-185 -198 0
-185 -210 0
-188 -205 0
-185 -208 0
-186 -205 0
-183 -212 0
-188 -212 0
-184 -212 0
-183 -213 0
-183 -224 0
-189 -221 0
-183 -221 0
-187 -223 0
-183 -231 0
-184 -226 0
-183 -229 0
-189 -230 0
-191 -198 0
-194 -203 0
-196 -203 0
-191 -202 0
-193 -205 0
-190 -205 0
-192 -204 0
-194 -210 0
-193 -214 0
-193 -213 0
-191 -212 0
-193 -211 0
-193 -225 0
-194 -225 0
-195 -227 0
-195 -229 0
-190 -244 0
-194 -240 0
-196 -243 0
-193 -242 0
-200 -212 0
-199 -214 0
-200 -211 0
-202 -211 0
-200 -220 0
-200 -224 0
-203 -224 0
-198 -219 0
-202 -226 0
-199 -229 0
-198 -230 0
-201 -227 0
-201 -241 0
-198 -244 0
-202 -239 0
-197 -241 0
-207 -222 0
-209 -218 0
-205 -218 0
-204 -224 0
-208 -227 0
-206 -231 0
-206 -226 0
-206 -225 0
-206 -238 0
-210 -233 0
-207 -237 0
-205 -234 0
-213 -221 0
-213 -218 0
-211 -221 0
-217 -221 0
-211 -230 0
-214 -229 0
-213 -231 0
-214 -227 0
-218 -230 0
-218 -229 0
-223 -228 0
-218 -228 0
-224 -237 0
-220 -235 0
-220 -233 0
-219 -238 0
-225 -239 0
-225 -244 0
-228 -240 0
-227 -244 0
